Instance name : SB_bar-n100-6
Authors : 
Date : 
Reference 
Solution
Route 1 : 4 31 54 32 82 81 48 34 6 28 84 98 56 13 26 63 76 49 2 78 3 52 53 15 99 46 65 96 
Route 2 : 25 38 40 88 75 90 1 30 51 7 23 57 9 80 44 59 45 27 77 73 94 36 33 83 95 86 
Route 3 : 22 43 72 16 93 47 66 8 18 97 5 17 67 11 68 55 35 14 85 64 10 58 61 50 60 39 100 89 
Route 4 : 20 29 79 70 41 37 91 12 87 21 71 62 42 24 19 92 69 74 
